19
[[-1, 30496, 0, 0, 0, 0, 22228, 0, 0, 0, 0, 0, 0, 0, 23151, 26093, 0, 0, 0],[30496, -1, 0, 0, 0, 0, 0, 34642, 43455, 0, 0, 0, 40668, 0, 0, 0, 41549, 43084, 36245],[0, 0, -1, 0, 13824, 0, 0, 0, 0, 0, 0, 0, 13967, 0, 20634, 13840, 0, 0, 44086],[0, 0, 0, -1, 0, 0, 0, 0, 0, 0, 0, 0, 0, 0, 0, 0, 33117, 0, 0],[0, 0, 13824, 0, -1, 0, 0, 0, 0, 0, 0, 0, 5909, 0, 0, 28348, 0, 0, 0],[0, 0, 0, 0, 0, -1, 0, 27108, 0, 0, 0, 0, 0, 40461, 0, 0, 0, 0, 0],[22228, 0, 0, 0, 0, 0, -1, 23113, 0, 35015, 0, 0, 0, 0, 44967, 33220, 0, 0, 0],[0, 34642, 0, 0, 0, 27108, 23113, -1, 29025, 0, 0, 41978, 0, 0, 28411, 0, 29396, 0, 0],[0, 43455, 0, 0, 0, 0, 0, 29025, -1, 0, 0, 0, 0, 0, 0, 35412, 0, 0, 0],[0, 0, 0, 0, 0, 0, 35015, 0, 0, -1, 33471, 0, 0, 0, 0, 45599, 0, 0, 0],[0, 0, 0, 0, 0, 0, 0, 0, 0, 33471, -1, 0, 34420, 0, 0, 0, 0, 0, 0],[0, 0, 0, 0, 0, 0, 0, 41978, 0, 0, 0, -1, 0, 0, 24127, 0, 0, 0, 37211],[0, 40668, 13967, 0, 5909, 0, 0, 0, 0, 0, 34420, 0, -1, 8736, 0, 41698, 0, 0, 0],[0, 0, 0, 0, 0, 40461, 0, 0, 0, 0, 0, 0, 8736, -1, 0, 0, 0, 0, 0],[23151, 0, 20634, 0, 0, 0, 44967, 28411, 0, 0, 0, 24127, 0, 0, -1, 9992, 41801, 15930, 46183],[26093, 0, 13840, 0, 28348, 0, 33220, 0, 35412, 45599, 0, 0, 41698, 0, 9992, -1, 0, 0, 29561],[0, 41549, 0, 33117, 0, 0, 0, 29396, 0, 0, 0, 0, 0, 0, 41801, 0, -1, 0, 0],[0, 43084, 0, 0, 0, 0, 0, 0, 0, 0, 0, 0, 0, 0, 15930, 0, 0, -1, 41742],[0, 36245, 44086, 0, 0, 0, 0, 0, 0, 0, 0, 37211, 0, 0, 46183, 29561, 0, 41742, -1]]